c Result of efficient AIG-to-CNF conversion using package CNF
p cnf 216 628
2 -179 3 -134 0
2 -179 -3 134 0
-2 179 0
-2 -3 -134 0
-2 3 134 0
3 4 -113 0
3 -4 113 0
-3 -4 -113 0
-3 4 113 0
4 -5 -44 0
4 -44 -110 0
4 -5 -110 0
-4 5 110 0
-4 44 110 0
-4 5 44 0
5 -215 -6 0
-5 215 0
-5 6 0
6 -179 7 -32 0
6 179 7 -18 0
-6 -7 0
-6 -179 32 0
-6 179 18 0
-7 8 14 16 17 0
7 -17 0
7 -8 0
7 -16 0
7 -14 0
-8 176 177 9 11 0
8 -176 0
8 -11 0
8 -9 0
8 -177 0
-9 168 174 175 10 0
9 -10 0
9 -175 0
9 -168 0
9 -174 0
-10 172 173 178 0
10 -172 0
10 -178 0
10 -173 0
-11 164 165 12 13 0
11 -164 0
11 -13 0
11 -12 0
11 -165 0
-12 169 170 171 0
12 -169 0
12 -171 0
12 -170 0
-13 160 161 166 167 0
13 -167 0
13 -166 0
13 -160 0
13 -161 0
-14 158 162 163 15 0
14 -15 0
14 -163 0
14 -158 0
14 -162 0
-15 156 157 0
15 -156 0
15 -157 0
-16 152 159 0
16 -152 0
16 -159 0
-17 153 154 155 0
17 -153 0
17 -155 0
17 -154 0
-18 180 19 0
-18 -180 -29 0
-18 -180 26 0
18 180 -19 0
18 -180 -26 29 0
-19 181 20 0
-19 -181 23 0
19 -181 -23 0
19 181 -20 0
-20 182 22 0
-20 -182 21 0
20 -182 -21 0
20 182 -22 0
21 -183 -209 0
21 183 -210 0
-21 183 210 0
-21 -183 209 0
22 -183 -211 0
22 183 -212 0
-22 183 212 0
-22 -183 211 0
23 182 -24 0
23 -182 -25 0
-23 -182 25 0
-23 182 24 0
24 -183 -207 0
24 183 -208 0
-24 183 208 0
-24 -183 207 0
25 -183 -205 0
25 183 -206 0
-25 183 206 0
-25 -183 205 0
-26 181 -182 28 0
-26 181 182 27 0
26 -181 0
26 -182 -28 0
26 182 -27 0
27 -183 -203 0
27 183 -204 0
-27 183 204 0
-27 -183 203 0
28 -183 -201 0
28 183 -202 0
-28 183 202 0
-28 -183 201 0
29 -181 -182 31 0
29 -181 182 30 0
-29 181 0
-29 -182 -31 0
-29 182 -30 0
30 -183 -199 0
30 183 -200 0
-30 183 200 0
-30 -183 199 0
31 -183 -197 0
31 183 -198 0
-31 183 198 0
-31 -183 197 0
32 -180 -39 0
32 180 -33 36 0
-32 180 33 0
-32 -180 39 0
-32 180 -36 0
-33 181 -182 35 0
-33 181 182 34 0
33 -181 0
33 -182 -35 0
33 182 -34 0
34 -183 -195 0
34 183 -196 0
-34 183 196 0
-34 -183 195 0
35 -183 -193 0
35 183 -194 0
-35 183 194 0
-35 -183 193 0
36 -181 -182 38 0
36 -181 182 37 0
-36 181 0
-36 -182 -38 0
-36 182 -37 0
37 -183 -191 0
37 183 -192 0
-37 183 192 0
-37 -183 191 0
38 -183 -189 0
38 183 -190 0
-38 183 190 0
-38 -183 189 0
39 181 -40 0
39 -181 182 -43 0
-39 -181 -182 0
-39 181 40 0
-39 -181 43 0
40 182 -41 0
40 -182 -42 0
-40 -182 42 0
-40 182 41 0
41 -183 -187 0
41 183 -188 0
-41 183 188 0
-41 -183 187 0
42 -183 -185 0
42 183 -186 0
-42 183 186 0
-42 -183 185 0
43 183 -184 0
-43 -183 0
-43 184 0
44 45 -93 0
44 -45 93 0
-44 -45 -93 0
-44 45 93 0
45 -46 -78 0
-45 46 0
-45 78 0
46 -213 -47 0
-46 213 0
-46 47 0
47 -179 7 -63 0
47 179 7 -48 0
-47 -7 0
-47 -179 63 0
-47 179 48 0
-48 180 49 0
-48 -180 56 0
48 -180 -56 0
48 180 -49 0
-49 181 50 0
-49 -181 53 0
49 -181 -53 0
49 181 -50 0
-50 182 52 0
-50 -182 51 0
50 -182 -51 0
50 182 -52 0
51 -183 -212 0
51 183 -213 0
-51 183 213 0
-51 -183 212 0
52 -183 -214 0
52 183 -215 0
-52 183 215 0
-52 -183 214 0
53 182 -54 0
53 -182 -55 0
-53 -182 55 0
-53 182 54 0
54 -183 -210 0
54 183 -211 0
-54 183 211 0
-54 -183 210 0
55 -183 -208 0
55 183 -209 0
-55 183 209 0
-55 -183 208 0
56 181 -57 0
56 -181 -60 0
-56 -181 60 0
-56 181 57 0
57 182 -58 0
57 -182 -59 0
-57 -182 59 0
-57 182 58 0
58 -183 -206 0
58 183 -207 0
-58 183 207 0
-58 -183 206 0
59 -183 -204 0
59 183 -205 0
-59 183 205 0
-59 -183 204 0
60 182 -61 0
60 -182 -62 0
-60 -182 62 0
-60 182 61 0
61 -183 -202 0
61 183 -203 0
-61 183 203 0
-61 -183 202 0
62 -183 -200 0
62 183 -201 0
-62 183 201 0
-62 -183 200 0
63 180 -64 0
63 -180 -71 0
-63 -180 71 0
-63 180 64 0
64 181 -65 0
64 -181 -68 0
-64 -181 68 0
-64 181 65 0
65 182 -66 0
65 -182 -67 0
-65 -182 67 0
-65 182 66 0
66 -183 -198 0
66 183 -199 0
-66 183 199 0
-66 -183 198 0
67 -183 -196 0
67 183 -197 0
-67 183 197 0
-67 -183 196 0
68 182 -69 0
68 -182 -70 0
-68 -182 70 0
-68 182 69 0
69 -183 -194 0
69 183 -195 0
-69 183 195 0
-69 -183 194 0
70 -183 -192 0
70 183 -193 0
-70 183 193 0
-70 -183 192 0
71 181 -72 0
71 -181 -75 0
-71 -181 75 0
-71 181 72 0
72 182 -73 0
72 -182 -74 0
-72 -182 74 0
-72 182 73 0
73 -183 -190 0
73 183 -191 0
-73 183 191 0
-73 -183 190 0
74 -183 -188 0
74 183 -189 0
-74 183 189 0
-74 -183 188 0
75 182 -76 0
75 -182 -77 0
-75 -182 77 0
-75 182 76 0
76 -183 -186 0
76 183 -187 0
-76 183 187 0
-76 -183 186 0
77 -183 -184 0
77 183 -185 0
-77 183 185 0
-77 -183 184 0
78 -214 -79 0
-78 214 0
-78 79 0
79 -179 7 -87 0
79 179 7 -80 0
-79 -7 0
-79 -179 87 0
-79 179 80 0
-80 180 81 0
-80 -180 -86 0
-80 -180 85 0
80 180 -81 0
80 -180 -85 86 0
-81 181 82 0
-81 -181 84 0
81 -181 -84 0
81 181 -82 0
-82 182 83 0
-82 -182 22 0
82 -182 -22 0
82 182 -83 0
83 -183 -213 0
83 183 -214 0
-83 183 214 0
-83 -183 213 0
84 182 -21 0
84 -182 -24 0
-84 -182 24 0
-84 182 21 0
-85 181 -182 27 0
-85 181 182 25 0
85 -181 0
85 -182 -27 0
85 182 -25 0
86 -181 -182 30 0
86 -181 182 28 0
-86 181 0
-86 -182 -30 0
-86 182 -28 0
87 -180 -90 0
87 180 -88 89 0
-87 180 88 0
-87 -180 90 0
-87 180 -89 0
-88 181 -182 34 0
-88 181 182 31 0
88 -181 0
88 -182 -34 0
88 182 -31 0
89 -181 -182 37 0
89 -181 182 35 0
-89 181 0
-89 -182 -37 0
-89 182 -35 0
90 181 -91 0
90 -181 -92 0
-90 -181 92 0
-90 181 91 0
91 182 -38 0
91 -182 -41 0
-91 -182 41 0
-91 182 38 0
92 182 -42 0
92 -182 183 -184 0
-92 -182 -183 0
-92 182 42 0
-92 -182 184 0
93 94 -97 0
93 -94 97 0
-93 -94 -97 0
-93 94 97 0
94 95 -96 0
94 -95 96 0
-94 -95 -96 0
-94 95 96 0
95 -212 -47 0
-95 212 0
-95 47 0
96 -213 -79 0
-96 213 0
-96 79 0
97 -214 -98 0
-97 214 0
-97 98 0
98 -179 7 -105 0
98 179 7 -99 0
-98 -7 0
-98 -179 105 0
-98 179 99 0
-99 180 100 0
-99 -180 -104 0
-99 -180 103 0
99 180 -100 0
99 -180 -103 104 0
-100 181 101 0
-100 -181 102 0
100 -181 -102 0
100 181 -101 0
-101 -182 54 0
-101 182 51 0
101 182 -51 0
101 -182 -54 0
102 182 -55 0
102 -182 -58 0
-102 -182 58 0
-102 182 55 0
-103 181 -182 61 0
-103 181 182 59 0
103 -181 0
103 -182 -61 0
103 182 -59 0
104 -181 -182 66 0
104 -181 182 62 0
-104 181 0
-104 -182 -66 0
-104 182 -62 0
105 -180 -108 0
105 180 -106 107 0
-105 180 106 0
-105 -180 108 0
-105 180 -107 0
-106 181 -182 69 0
-106 181 182 67 0
106 -181 0
106 -182 -69 0
106 182 -67 0
107 -181 -182 73 0
107 -181 182 70 0
-107 181 0
-107 -182 -73 0
-107 182 -70 0
108 181 -109 0
108 -181 182 -77 0
-108 -181 -182 0
-108 181 109 0
-108 -181 77 0
109 182 -74 0
109 -182 -76 0
-109 -182 76 0
-109 182 74 0
110 -111 -112 0
110 46 -78 -111 0
110 46 -78 -112 0
110 -46 78 -111 0
110 -46 78 -112 0
-110 111 112 0
-110 46 78 112 0
-110 -46 -78 112 0
-110 -46 -78 111 0
-110 46 78 111 0
111 -215 -98 0
-111 215 0
-111 98 0
112 -215 -47 -78 0
-112 215 0
-112 47 0
-112 78 0
113 114 -120 0
113 -114 120 0
-113 -114 -120 0
-113 114 120 0
114 -215 7 -115 0
-114 215 0
-114 -7 0
-114 115 0
-115 -179 118 0
-115 179 116 117 0
115 179 -116 0
115 -179 -118 0
115 179 -117 0
116 180 -181 -57 0
116 180 181 -53 0
-116 -180 0
-116 -181 57 0
-116 181 53 0
117 -180 -181 -65 0
117 -180 181 -60 0
-117 180 0
-117 -181 65 0
-117 181 60 0
118 180 -119 0
118 -180 181 -75 0
-118 -180 -181 0
-118 180 119 0
-118 -180 75 0
119 181 -68 0
119 -181 -72 0
-119 -181 72 0
-119 181 68 0
120 121 -125 0
120 -121 125 0
-120 -121 -125 0
-120 121 125 0
121 -122 -123 0
-121 122 0
-121 123 0
-122 94 97 0
122 -94 0
122 -97 0
-123 45 124 0
123 -45 0
123 -124 0
124 -94 -97 0
-124 94 0
-124 97 0
125 126 -133 0
125 -126 133 0
-125 -126 -133 0
-125 126 133 0
126 127 -128 0
126 -127 128 0
-126 -127 -128 0
-126 127 128 0
127 -95 -96 0
-127 95 0
-127 96 0
128 129 -132 0
128 -129 132 0
-128 -129 -132 0
-128 129 132 0
129 130 -131 0
129 -130 131 0
-129 -130 -131 0
-129 130 131 0
130 -211 -47 0
-130 211 0
-130 47 0
131 -212 -79 0
-131 212 0
-131 79 0
132 -213 -98 0
-132 213 0
-132 98 0
133 -214 -6 0
-133 214 0
-133 6 0
134 135 -141 0
134 -135 141 0
-134 -135 -141 0
-134 135 141 0
135 -95 -136 0
135 -136 -140 0
135 -95 -140 0
-135 95 140 0
-135 136 140 0
-135 95 136 0
136 137 -138 0
136 -137 138 0
-136 -137 -138 0
-136 137 138 0
137 -78 -111 0
-137 78 0
-137 111 0
138 96 -139 0
138 -96 139 0
-138 -96 -139 0
-138 96 139 0
139 5 -97 0
139 -5 97 0
-139 -5 -97 0
-139 5 97 0
140 -46 -112 0
140 -46 78 -111 0
140 -78 111 -112 0
140 -46 -78 111 0
140 78 -111 -112 0
-140 46 112 0
-140 -78 -111 112 0
-140 46 -78 -111 0
-140 78 111 112 0
-140 46 78 111 0
141 130 -142 0
141 -130 142 0
-141 -130 -142 0
-141 130 142 0
142 143 -147 0
142 -143 147 0
-142 -143 -147 0
-142 143 147 0
143 -144 -145 0
-143 144 0
-143 145 0
-144 96 139 0
144 -96 0
144 -139 0
-145 137 146 0
145 -137 0
145 -146 0
146 -96 -139 0
-146 96 0
-146 139 0
147 131 -148 0
147 -131 148 0
-147 -131 -148 0
-147 131 148 0
148 149 -150 0
148 -149 150 0
-148 -149 -150 0
-148 149 150 0
149 -5 -97 0
-149 5 0
-149 97 0
150 132 -151 0
150 -132 151 0
-150 -132 -151 0
-150 132 151 0
151 114 -133 0
151 -114 133 0
-151 -114 -133 0
-151 114 133 0
-216 0
2 0

